modeles/2_79.lp
minimize
obj: 1 x_1_ + 1 x_2_
subject to
c1_1: 1 t_1,1_ - 1 y_1,1_ <= 0
c2_1: 1 t_1,2_ - 1 y_1,1_ - 1 y_1,2_ <= 0
c3_1: 1 t_1,3_ - 1 y_1,2_ - 1 y_1,3_ <= 0
c4_1: 1 t_1,4_ - 1 y_1,3_ - 1 y_1,4_ <= 0
c5_1: 1 t_1,5_ - 1 y_1,4_ - 1 y_1,5_ <= 0
c6_1: 1 t_1,6_ - 1 y_1,5_ - 1 y_1,6_ <= 0
c7: 1 t_1,7_ - 1 y_1,6_ - 1 y_1,7_ <= 0
c8: 1 t_1,8_ - 1 y_1,7_ - 1 y_1,8_ <= 0
c9: 1 t_1,9_ - 1 y_1,8_ - 1 y_1,9_ <= 0
c10: 1 t_1,10_ - 1 y_1,9_ - 1 y_1,10_ <= 0
c11: 1 t_1,11_ - 1 y_1,10_ - 1 y_1,11_ <= 0
c12: 1 t_1,12_ - 1 y_1,11_ - 1 y_1,12_ <= 0
c13: 1 t_1,13_ - 1 y_1,12_ - 1 y_1,13_ <= 0
c14: 1 t_1,14_ - 1 y_1,13_ - 1 y_1,14_ <= 0
c15: 1 t_1,15_ - 1 y_1,14_ - 1 y_1,15_ <= 0
c16: 1 t_1,16_ - 1 y_1,15_ - 1 y_1,16_ <= 0
c17: 1 t_1,17_ - 1 y_1,16_ - 1 y_1,17_ <= 0
c18: 1 t_1,18_ - 1 y_1,17_ - 1 y_1,18_ <= 0
c19: 1 t_1,19_ - 1 y_1,18_ - 1 y_1,19_ <= 0
c20: 1 t_1,20_ - 1 y_1,19_ - 1 y_1,20_ <= 0
c21: 1 t_1,21_ - 1 y_1,20_ - 1 y_1,21_ <= 0
c22: 1 t_1,22_ - 1 y_1,21_ - 1 y_1,22_ <= 0
c23: 1 t_1,23_ - 1 y_1,22_ - 1 y_1,23_ <= 0
c24: 1 t_1,24_ - 1 y_1,23_ - 1 y_1,24_ <= 0
c25: 1 t_1,25_ - 1 y_1,24_ - 1 y_1,25_ <= 0
c26: 1 t_1,26_ - 1 y_1,25_ - 1 y_1,26_ <= 0
c27: 1 t_1,27_ - 1 y_1,26_ - 1 y_1,27_ <= 0
c28: 1 t_1,28_ - 1 y_1,27_ - 1 y_1,28_ <= 0
c29: 1 t_1,29_ - 1 y_1,28_ - 1 y_1,29_ <= 0
c30: 1 t_1,30_ - 1 y_1,29_ - 1 y_1,30_ <= 0
c31: 1 t_1,31_ - 1 y_1,30_ - 1 y_1,31_ <= 0
c32: 1 t_1,32_ - 1 y_1,31_ - 1 y_1,32_ <= 0
c33: 1 t_1,33_ - 1 y_1,32_ - 1 y_1,33_ <= 0
c34: 1 t_1,34_ - 1 y_1,33_ - 1 y_1,34_ <= 0
c35: 1 t_1,35_ - 1 y_1,34_ - 1 y_1,35_ <= 0
c36: 1 t_1,36_ - 1 y_1,35_ - 1 y_1,36_ <= 0
c37: 1 t_1,37_ - 1 y_1,36_ - 1 y_1,37_ <= 0
c38: 1 t_1,38_ - 1 y_1,37_ - 1 y_1,38_ <= 0
c39: 1 t_1,39_ - 1 y_1,38_ - 1 y_1,39_ <= 0
c40: 1 t_1,40_ - 1 y_1,39_ - 1 y_1,40_ <= 0
c41: 1 t_1,41_ - 1 y_1,40_ - 1 y_1,41_ <= 0
c42: 1 t_1,42_ - 1 y_1,41_ - 1 y_1,42_ <= 0
c43: 1 t_1,43_ - 1 y_1,42_ - 1 y_1,43_ <= 0
c44: 1 t_1,44_ - 1 y_1,43_ - 1 y_1,44_ <= 0
c45: 1 t_1,45_ - 1 y_1,44_ - 1 y_1,45_ <= 0
c46: 1 t_1,46_ - 1 y_1,45_ - 1 y_1,46_ <= 0
c47: 1 t_1,47_ - 1 y_1,46_ - 1 y_1,47_ <= 0
c48: 1 t_1,48_ - 1 y_1,47_ - 1 y_1,48_ <= 0
c49: 1 t_1,49_ - 1 y_1,48_ - 1 y_1,49_ <= 0
c50: 1 t_1,50_ - 1 y_1,49_ - 1 y_1,50_ <= 0
c51: 1 t_1,51_ - 1 y_1,50_ - 1 y_1,51_ <= 0
c52: 1 t_1,52_ - 1 y_1,51_ - 1 y_1,52_ <= 0
c53: 1 t_1,53_ - 1 y_1,52_ - 1 y_1,53_ <= 0
c54: 1 t_1,54_ - 1 y_1,53_ - 1 y_1,54_ <= 0
c55: 1 t_1,55_ - 1 y_1,54_ - 1 y_1,55_ <= 0
c56: 1 t_1,56_ - 1 y_1,55_ - 1 y_1,56_ <= 0
c57: 1 t_1,57_ - 1 y_1,56_ - 1 y_1,57_ <= 0
c58: 1 t_1,58_ - 1 y_1,57_ - 1 y_1,58_ <= 0
c59: 1 t_1,59_ - 1 y_1,58_ - 1 y_1,59_ <= 0
c60: 1 t_1,60_ - 1 y_1,59_ - 1 y_1,60_ <= 0
c61: 1 t_1,61_ - 1 y_1,60_ - 1 y_1,61_ <= 0
c62: 1 t_1,62_ - 1 y_1,61_ - 1 y_1,62_ <= 0
c63: 1 t_1,63_ - 1 y_1,62_ - 1 y_1,63_ <= 0
c64: 1 t_1,64_ - 1 y_1,63_ - 1 y_1,64_ <= 0
c65: 1 t_1,65_ - 1 y_1,64_ - 1 y_1,65_ <= 0
c66: 1 t_1,66_ - 1 y_1,65_ - 1 y_1,66_ <= 0
c67: 1 t_1,67_ - 1 y_1,66_ - 1 y_1,67_ <= 0
c68: 1 t_1,68_ - 1 y_1,67_ - 1 y_1,68_ <= 0
c69: 1 t_1,69_ - 1 y_1,68_ - 1 y_1,69_ <= 0
c70: 1 t_1,70_ - 1 y_1,69_ - 1 y_1,70_ <= 0
c71: 1 t_1,71_ - 1 y_1,70_ - 1 y_1,71_ <= 0
c72: 1 t_1,72_ - 1 y_1,71_ - 1 y_1,72_ <= 0
c73: 1 t_1,73_ - 1 y_1,72_ - 1 y_1,73_ <= 0
c74: 1 t_1,74_ - 1 y_1,73_ - 1 y_1,74_ <= 0
c75: 1 t_1,75_ - 1 y_1,74_ - 1 y_1,75_ <= 0
c76: 1 t_1,76_ - 1 y_1,75_ - 1 y_1,76_ <= 0
c77: 1 t_1,77_ - 1 y_1,76_ - 1 y_1,77_ <= 0
c78: 1 t_1,78_ - 1 y_1,77_ - 1 y_1,78_ <= 0
c79: 1 t_1,79_ - 1 y_1,78_ - 1 y_1,79_ <= 0
c80: 1 t_1,80_ - 1 y_1,79_ <= 0
c81: 1 t_2,1_ - 1 y_2,1_ <= 0
c82: 1 t_2,2_ - 1 y_2,1_ - 1 y_2,2_ <= 0
c83: 1 t_2,3_ - 1 y_2,2_ - 1 y_2,3_ <= 0
c84: 1 t_2,4_ - 1 y_2,3_ - 1 y_2,4_ <= 0
c85: 1 t_2,5_ - 1 y_2,4_ - 1 y_2,5_ <= 0
c86: 1 t_2,6_ - 1 y_2,5_ - 1 y_2,6_ <= 0
c87: 1 t_2,7_ - 1 y_2,6_ - 1 y_2,7_ <= 0
c88: 1 t_2,8_ - 1 y_2,7_ - 1 y_2,8_ <= 0
c89: 1 t_2,9_ - 1 y_2,8_ - 1 y_2,9_ <= 0
c90: 1 t_2,10_ - 1 y_2,9_ - 1 y_2,10_ <= 0
c91: 1 t_2,11_ - 1 y_2,10_ - 1 y_2,11_ <= 0
c92: 1 t_2,12_ - 1 y_2,11_ - 1 y_2,12_ <= 0
c93: 1 t_2,13_ - 1 y_2,12_ - 1 y_2,13_ <= 0
c94: 1 t_2,14_ - 1 y_2,13_ - 1 y_2,14_ <= 0
c95: 1 t_2,15_ - 1 y_2,14_ - 1 y_2,15_ <= 0
c96: 1 t_2,16_ - 1 y_2,15_ - 1 y_2,16_ <= 0
c97: 1 t_2,17_ - 1 y_2,16_ - 1 y_2,17_ <= 0
c98: 1 t_2,18_ - 1 y_2,17_ - 1 y_2,18_ <= 0
c99: 1 t_2,19_ - 1 y_2,18_ - 1 y_2,19_ <= 0
c100: 1 t_2,20_ - 1 y_2,19_ - 1 y_2,20_ <= 0
c101: 1 t_2,21_ - 1 y_2,20_ - 1 y_2,21_ <= 0
c102: 1 t_2,22_ - 1 y_2,21_ - 1 y_2,22_ <= 0
c103: 1 t_2,23_ - 1 y_2,22_ - 1 y_2,23_ <= 0
c104: 1 t_2,24_ - 1 y_2,23_ - 1 y_2,24_ <= 0
c105: 1 t_2,25_ - 1 y_2,24_ - 1 y_2,25_ <= 0
c106: 1 t_2,26_ - 1 y_2,25_ - 1 y_2,26_ <= 0
c107: 1 t_2,27_ - 1 y_2,26_ - 1 y_2,27_ <= 0
c108: 1 t_2,28_ - 1 y_2,27_ - 1 y_2,28_ <= 0
c109: 1 t_2,29_ - 1 y_2,28_ - 1 y_2,29_ <= 0
c110: 1 t_2,30_ - 1 y_2,29_ - 1 y_2,30_ <= 0
c111: 1 t_2,31_ - 1 y_2,30_ - 1 y_2,31_ <= 0
c112: 1 t_2,32_ - 1 y_2,31_ - 1 y_2,32_ <= 0
c113: 1 t_2,33_ - 1 y_2,32_ - 1 y_2,33_ <= 0
c114: 1 t_2,34_ - 1 y_2,33_ - 1 y_2,34_ <= 0
c115: 1 t_2,35_ - 1 y_2,34_ - 1 y_2,35_ <= 0
c116: 1 t_2,36_ - 1 y_2,35_ - 1 y_2,36_ <= 0
c117: 1 t_2,37_ - 1 y_2,36_ - 1 y_2,37_ <= 0
c118: 1 t_2,38_ - 1 y_2,37_ - 1 y_2,38_ <= 0
c119: 1 t_2,39_ - 1 y_2,38_ - 1 y_2,39_ <= 0
c120: 1 t_2,40_ - 1 y_2,39_ - 1 y_2,40_ <= 0
c121: 1 t_2,41_ - 1 y_2,40_ - 1 y_2,41_ <= 0
c122: 1 t_2,42_ - 1 y_2,41_ - 1 y_2,42_ <= 0
c123: 1 t_2,43_ - 1 y_2,42_ - 1 y_2,43_ <= 0
c124: 1 t_2,44_ - 1 y_2,43_ - 1 y_2,44_ <= 0
c125: 1 t_2,45_ - 1 y_2,44_ - 1 y_2,45_ <= 0
c126: 1 t_2,46_ - 1 y_2,45_ - 1 y_2,46_ <= 0
c127: 1 t_2,47_ - 1 y_2,46_ - 1 y_2,47_ <= 0
c128: 1 t_2,48_ - 1 y_2,47_ - 1 y_2,48_ <= 0
c129: 1 t_2,49_ - 1 y_2,48_ - 1 y_2,49_ <= 0
c130: 1 t_2,50_ - 1 y_2,49_ - 1 y_2,50_ <= 0
c131: 1 t_2,51_ - 1 y_2,50_ - 1 y_2,51_ <= 0
c132: 1 t_2,52_ - 1 y_2,51_ - 1 y_2,52_ <= 0
c133: 1 t_2,53_ - 1 y_2,52_ - 1 y_2,53_ <= 0
c134: 1 t_2,54_ - 1 y_2,53_ - 1 y_2,54_ <= 0
c135: 1 t_2,55_ - 1 y_2,54_ - 1 y_2,55_ <= 0
c136: 1 t_2,56_ - 1 y_2,55_ - 1 y_2,56_ <= 0
c137: 1 t_2,57_ - 1 y_2,56_ - 1 y_2,57_ <= 0
c138: 1 t_2,58_ - 1 y_2,57_ - 1 y_2,58_ <= 0
c139: 1 t_2,59_ - 1 y_2,58_ - 1 y_2,59_ <= 0
c140: 1 t_2,60_ - 1 y_2,59_ - 1 y_2,60_ <= 0
c141: 1 t_2,61_ - 1 y_2,60_ - 1 y_2,61_ <= 0
c142: 1 t_2,62_ - 1 y_2,61_ - 1 y_2,62_ <= 0
c143: 1 t_2,63_ - 1 y_2,62_ - 1 y_2,63_ <= 0
c144: 1 t_2,64_ - 1 y_2,63_ - 1 y_2,64_ <= 0
c145: 1 t_2,65_ - 1 y_2,64_ - 1 y_2,65_ <= 0
c146: 1 t_2,66_ - 1 y_2,65_ - 1 y_2,66_ <= 0
c147: 1 t_2,67_ - 1 y_2,66_ - 1 y_2,67_ <= 0
c148: 1 t_2,68_ - 1 y_2,67_ - 1 y_2,68_ <= 0
c149: 1 t_2,69_ - 1 y_2,68_ - 1 y_2,69_ <= 0
c150: 1 t_2,70_ - 1 y_2,69_ - 1 y_2,70_ <= 0
c151: 1 t_2,71_ - 1 y_2,70_ - 1 y_2,71_ <= 0
c152: 1 t_2,72_ - 1 y_2,71_ - 1 y_2,72_ <= 0
c153: 1 t_2,73_ - 1 y_2,72_ - 1 y_2,73_ <= 0
c154: 1 t_2,74_ - 1 y_2,73_ - 1 y_2,74_ <= 0
c155: 1 t_2,75_ - 1 y_2,74_ - 1 y_2,75_ <= 0
c156: 1 t_2,76_ - 1 y_2,75_ - 1 y_2,76_ <= 0
c157: 1 t_2,77_ - 1 y_2,76_ - 1 y_2,77_ <= 0
c158: 1 t_2,78_ - 1 y_2,77_ - 1 y_2,78_ <= 0
c159: 1 t_2,79_ - 1 y_2,78_ - 1 y_2,79_ <= 0
c160: 1 t_2,80_ - 1 y_2,79_ <= 0
c161: 4 t_1,1_ + 4 t_2,1_ + 3.8000320461464514 t_1,2_ + 3.8000320461464514 t_2,2_ + 3.605191475725044 t_1,3_ + 3.605191475725044 t_2,3_ + 3.41547828873578 t_1,4_ + 3.41547828873578 t_2,4_ + 3.2308924851786567 t_1,5_ + 3.2308924851786567 t_2,5_ + 3.051434065053677 t_1,6_ + 3.051434065053677 t_2,6_ + 2.8771030283608403 t_1,7_ + 2.8771030283608403 t_2,7_ + 2.7078993751001437 t_1,8_ + 2.7078993751001437 t_2,8_ + 2.543823105271591 t_1,9_ + 2.543823105271591 t_2,9_ + 2.384874218875181 t_1,10_ + 2.384874218875181 t_2,10_ + 2.2310527159109115 t_1,11_ + 2.2310527159109115 t_2,11_ + 2.082358596378786 t_1,12_ + 2.082358596378786 t_2,12_ + 1.938791860278801 t_1,13_ + 1.938791860278801 t_2,13_ + 1.8003525076109599 t_1,14_ + 1.8003525076109599 t_2,14_ + 1.6670405383752598 t_1,15_ + 1.6670405383752598 t_2,15_ + 1.5388559525717032 t_1,16_ + 1.5388559525717032 t_2,16_ + 1.4157987502002887 t_1,17_ + 1.4157987502002887 t_2,17_ + 1.2978689312610154 t_1,18_ + 1.2978689312610154 t_2,18_ + 1.1850664957538857 t_1,19_ + 1.1850664957538857 t_2,19_ + 1.077391443678898 t_1,20_ + 1.077391443678898 t_2,20_ + 0.9748437750360518 t_1,21_ + 0.9748437750360518 t_2,21_ + 0.8774234898253487 t_1,22_ + 0.8774234898253487 t_2,22_ + 0.7851305880467877 t_1,23_ + 0.7851305880467877 t_2,23_ + 0.6979650697003685 t_1,24_ + 0.6979650697003685 t_2,24_ + 0.6159269347860917 t_1,25_ + 0.6159269347860917 t_2,25_ + 0.5390161833039576 t_1,26_ + 0.5390161833039576 t_2,26_ + 0.4672328152539658 t_1,27_ + 0.4672328152539658 t_2,27_ + 0.40057683063611593 t_1,28_ + 0.40057683063611593 t_2,28_ + 0.3390482294504086 t_1,29_ + 0.3390482294504086 t_2,29_ + 0.28264701169684353 t_1,30_ + 0.28264701169684353 t_2,30_ + 0.2313731773754205 t_1,31_ + 0.2313731773754205 t_2,31_ + 0.1852267264861401 t_1,32_ + 0.1852267264861401 t_2,32_ + 0.14420765902900187 t_1,33_ + 0.14420765902900187 t_2,33_ + 0.10831597500400575 t_1,34_ + 0.10831597500400575 t_2,34_ + 0.07755167441115196 t_1,35_ + 0.07755167441115196 t_2,35_ + 0.05191475725044073 t_1,36_ + 0.05191475725044073 t_2,36_ + 0.031405223521871514 t_1,37_ + 0.031405223521871514 t_2,37_ + 0.016023073225444613 t_1,38_ + 0.016023073225444613 t_2,38_ + 0.0057683063611600645 t_1,39_ + 0.0057683063611600645 t_2,39_ + 0.0006409229290177868 t_1,40_ + 0.0006409229290177868 t_2,40_ + 0.0006409229290177924 t_1,41_ + 0.0006409229290177924 t_2,41_ + 0.0057683063611600645 t_1,42_ + 0.0057683063611600645 t_2,42_ + 0.016023073225444585 t_1,43_ + 0.016023073225444585 t_2,43_ + 0.031405223521871514 t_1,44_ + 0.031405223521871514 t_2,44_ + 0.051914757250440584 t_1,45_ + 0.051914757250440584 t_2,45_ + 0.07755167441115214 t_1,46_ + 0.07755167441115214 t_2,46_ + 0.10831597500400575 t_1,47_ + 0.10831597500400575 t_2,47_ + 0.14420765902900162 t_1,48_ + 0.14420765902900162 t_2,48_ + 0.1852267264861401 t_1,49_ + 0.1852267264861401 t_2,49_ + 0.2313731773754205 t_1,50_ + 0.2313731773754205 t_2,50_ + 0.28264701169684364 t_1,51_ + 0.28264701169684364 t_2,51_ + 0.3390482294504086 t_1,52_ + 0.3390482294504086 t_2,52_ + 0.40057683063611577 t_1,53_ + 0.40057683063611577 t_2,53_ + 0.4672328152539658 t_1,54_ + 0.4672328152539658 t_2,54_ + 0.5390161833039576 t_1,55_ + 0.5390161833039576 t_2,55_ + 0.6159269347860923 t_1,56_ + 0.6159269347860923 t_2,56_ + 0.6979650697003685 t_1,57_ + 0.6979650697003685 t_2,57_ + 0.785130588046787 t_1,58_ + 0.785130588046787 t_2,58_ + 0.8774234898253487 t_1,59_ + 0.8774234898253487 t_2,59_ + 0.9748437750360518 t_1,60_ + 0.9748437750360518 t_2,60_ + 1.077391443678898 t_1,61_ + 1.077391443678898 t_2,61_ + 1.1850664957538857 t_1,62_ + 1.1850664957538857 t_2,62_ + 1.2978689312610154 t_1,63_ + 1.2978689312610154 t_2,63_ + 1.4157987502002887 t_1,64_ + 1.4157987502002887 t_2,64_ + 1.5388559525717032 t_1,65_ + 1.5388559525717032 t_2,65_ + 1.667040538375261 t_1,66_ + 1.667040538375261 t_2,66_ + 1.8003525076109599 t_1,67_ + 1.8003525076109599 t_2,67_ + 1.938791860278801 t_1,68_ + 1.938791860278801 t_2,68_ + 2.082358596378786 t_1,69_ + 2.082358596378786 t_2,69_ + 2.2310527159109115 t_1,70_ + 2.2310527159109115 t_2,70_ + 2.3848742188751797 t_1,71_ + 2.3848742188751797 t_2,71_ + 2.543823105271591 t_1,72_ + 2.543823105271591 t_2,72_ + 2.7078993751001437 t_1,73_ + 2.7078993751001437 t_2,73_ + 2.8771030283608403 t_1,74_ + 2.8771030283608403 t_2,74_ + 3.051434065053677 t_1,75_ + 3.051434065053677 t_2,75_ + 3.2308924851786567 t_1,76_ + 3.2308924851786567 t_2,76_ + 3.41547828873578 t_1,77_ + 3.41547828873578 t_2,77_ + 3.605191475725044 t_1,78_ + 3.605191475725044 t_2,78_ + 3.8000320461464514 t_1,79_ + 3.8000320461464514 t_2,79_ + 4 t_1,80_ + 4 t_2,80_ <= 1
c1: 1 y_1,1_ + 1 y_1,2_ + 1 y_1,3_ + 1 y_1,4_ + 1 y_1,5_ + 1 y_1,6_ + 1 y_1,7_ + 1 y_1,8_ + 1 y_1,9_ + 1 y_1,10_ + 1 y_1,11_ + 1 y_1,12_ + 1 y_1,13_ + 1 y_1,14_ + 1 y_1,15_ + 1 y_1,16_ + 1 y_1,17_ + 1 y_1,18_ + 1 y_1,19_ + 1 y_1,20_ + 1 y_1,21_ + 1 y_1,22_ + 1 y_1,23_ + 1 y_1,24_ + 1 y_1,25_ + 1 y_1,26_ + 1 y_1,27_ + 1 y_1,28_ + 1 y_1,29_ + 1 y_1,30_ + 1 y_1,31_ + 1 y_1,32_ + 1 y_1,33_ + 1 y_1,34_ + 1 y_1,35_ + 1 y_1,36_ + 1 y_1,37_ + 1 y_1,38_ + 1 y_1,39_ + 1 y_1,40_ + 1 y_1,41_ + 1 y_1,42_ + 1 y_1,43_ + 1 y_1,44_ + 1 y_1,45_ + 1 y_1,46_ + 1 y_1,47_ + 1 y_1,48_ + 1 y_1,49_ + 1 y_1,50_ + 1 y_1,51_ + 1 y_1,52_ + 1 y_1,53_ + 1 y_1,54_ + 1 y_1,55_ + 1 y_1,56_ + 1 y_1,57_ + 1 y_1,58_ + 1 y_1,59_ + 1 y_1,60_ + 1 y_1,61_ + 1 y_1,62_ + 1 y_1,63_ + 1 y_1,64_ + 1 y_1,65_ + 1 y_1,66_ + 1 y_1,67_ + 1 y_1,68_ + 1 y_1,69_ + 1 y_1,70_ + 1 y_1,71_ + 1 y_1,72_ + 1 y_1,73_ + 1 y_1,74_ + 1 y_1,75_ + 1 y_1,76_ + 1 y_1,77_ + 1 y_1,78_ + 1 y_1,79_ = 1
c2: 1 t_1,1_ + 1 t_1,2_ + 1 t_1,3_ + 1 t_1,4_ + 1 t_1,5_ + 1 t_1,6_ + 1 t_1,7_ + 1 t_1,8_ + 1 t_1,9_ + 1 t_1,10_ + 1 t_1,11_ + 1 t_1,12_ + 1 t_1,13_ + 1 t_1,14_ + 1 t_1,15_ + 1 t_1,16_ + 1 t_1,17_ + 1 t_1,18_ + 1 t_1,19_ + 1 t_1,20_ + 1 t_1,21_ + 1 t_1,22_ + 1 t_1,23_ + 1 t_1,24_ + 1 t_1,25_ + 1 t_1,26_ + 1 t_1,27_ + 1 t_1,28_ + 1 t_1,29_ + 1 t_1,30_ + 1 t_1,31_ + 1 t_1,32_ + 1 t_1,33_ + 1 t_1,34_ + 1 t_1,35_ + 1 t_1,36_ + 1 t_1,37_ + 1 t_1,38_ + 1 t_1,39_ + 1 t_1,40_ + 1 t_1,41_ + 1 t_1,42_ + 1 t_1,43_ + 1 t_1,44_ + 1 t_1,45_ + 1 t_1,46_ + 1 t_1,47_ + 1 t_1,48_ + 1 t_1,49_ + 1 t_1,50_ + 1 t_1,51_ + 1 t_1,52_ + 1 t_1,53_ + 1 t_1,54_ + 1 t_1,55_ + 1 t_1,56_ + 1 t_1,57_ + 1 t_1,58_ + 1 t_1,59_ + 1 t_1,60_ + 1 t_1,61_ + 1 t_1,62_ + 1 t_1,63_ + 1 t_1,64_ + 1 t_1,65_ + 1 t_1,66_ + 1 t_1,67_ + 1 t_1,68_ + 1 t_1,69_ + 1 t_1,70_ + 1 t_1,71_ + 1 t_1,72_ + 1 t_1,73_ + 1 t_1,74_ + 1 t_1,75_ + 1 t_1,76_ + 1 t_1,77_ + 1 t_1,78_ + 1 t_1,79_ + 1 t_1,80_ = 1
c3: -2 t_1,1_ - 1.949367088607595 t_1,2_ - 1.8987341772151898 t_1,3_ - 1.8481012658227849 t_1,4_ - 1.7974683544303796 t_1,5_ - 1.7468354430379747 t_1,6_ - 1.6962025316455698 t_1,7_ - 1.6455696202531644 t_1,8_ - 1.5949367088607596 t_1,9_ - 1.5443037974683547 t_1,10_ - 1.4936708860759493 t_1,11_ - 1.4430379746835444 t_1,12_ - 1.3924050632911391 t_1,13_ - 1.3417721518987342 t_1,14_ - 1.291139240506329 t_1,15_ - 1.240506329113924 t_1,16_ - 1.189873417721519 t_1,17_ - 1.1392405063291138 t_1,18_ - 1.0886075949367089 t_1,19_ - 1.037974683544304 t_1,20_ - 0.9873417721518987 t_1,21_ - 0.9367088607594938 t_1,22_ - 0.8860759493670888 t_1,23_ - 0.8354430379746836 t_1,24_ - 0.7848101265822783 t_1,25_ - 0.7341772151898733 t_1,26_ - 0.6835443037974684 t_1,27_ - 0.6329113924050632 t_1,28_ - 0.5822784810126582 t_1,29_ - 0.5316455696202532 t_1,30_ - 0.481012658227848 t_1,31_ - 0.4303797468354431 t_1,32_ - 0.3797468354430381 t_1,33_ - 0.3291139240506329 t_1,34_ - 0.27848101265822767 t_1,35_ - 0.227848101265823 t_1,36_ - 0.17721518987341778 t_1,37_ - 0.12658227848101256 t_1,38_ - 0.07594936708860756 t_1,39_ - 0.025316455696202556 t_1,40_ + 0.025316455696202667 t_1,41_ + 0.07594936708860756 t_1,42_ + 0.12658227848101244 t_1,43_ + 0.17721518987341778 t_1,44_ + 0.22784810126582267 t_1,45_ + 0.278481012658228 t_1,46_ + 0.3291139240506329 t_1,47_ + 0.3797468354430378 t_1,48_ + 0.4303797468354431 t_1,49_ + 0.481012658227848 t_1,50_ + 0.5316455696202533 t_1,51_ + 0.5822784810126582 t_1,52_ + 0.6329113924050631 t_1,53_ + 0.6835443037974684 t_1,54_ + 0.7341772151898733 t_1,55_ + 0.7848101265822787 t_1,56_ + 0.8354430379746836 t_1,57_ + 0.8860759493670884 t_1,58_ + 0.9367088607594938 t_1,59_ + 0.9873417721518987 t_1,60_ + 1.037974683544304 t_1,61_ + 1.0886075949367089 t_1,62_ + 1.1392405063291138 t_1,63_ + 1.189873417721519 t_1,64_ + 1.240506329113924 t_1,65_ + 1.2911392405063293 t_1,66_ + 1.3417721518987342 t_1,67_ + 1.3924050632911391 t_1,68_ + 1.4430379746835444 t_1,69_ + 1.4936708860759493 t_1,70_ + 1.5443037974683542 t_1,71_ + 1.5949367088607596 t_1,72_ + 1.6455696202531644 t_1,73_ + 1.6962025316455698 t_1,74_ + 1.7468354430379747 t_1,75_ + 1.7974683544303796 t_1,76_ + 1.8481012658227849 t_1,77_ + 1.8987341772151898 t_1,78_ + 1.949367088607595 t_1,79_ + 2 t_1,80_ - 1 x_1_ = 0
c4: 1 y_2,1_ + 1 y_2,2_ + 1 y_2,3_ + 1 y_2,4_ + 1 y_2,5_ + 1 y_2,6_ + 1 y_2,7_ + 1 y_2,8_ + 1 y_2,9_ + 1 y_2,10_ + 1 y_2,11_ + 1 y_2,12_ + 1 y_2,13_ + 1 y_2,14_ + 1 y_2,15_ + 1 y_2,16_ + 1 y_2,17_ + 1 y_2,18_ + 1 y_2,19_ + 1 y_2,20_ + 1 y_2,21_ + 1 y_2,22_ + 1 y_2,23_ + 1 y_2,24_ + 1 y_2,25_ + 1 y_2,26_ + 1 y_2,27_ + 1 y_2,28_ + 1 y_2,29_ + 1 y_2,30_ + 1 y_2,31_ + 1 y_2,32_ + 1 y_2,33_ + 1 y_2,34_ + 1 y_2,35_ + 1 y_2,36_ + 1 y_2,37_ + 1 y_2,38_ + 1 y_2,39_ + 1 y_2,40_ + 1 y_2,41_ + 1 y_2,42_ + 1 y_2,43_ + 1 y_2,44_ + 1 y_2,45_ + 1 y_2,46_ + 1 y_2,47_ + 1 y_2,48_ + 1 y_2,49_ + 1 y_2,50_ + 1 y_2,51_ + 1 y_2,52_ + 1 y_2,53_ + 1 y_2,54_ + 1 y_2,55_ + 1 y_2,56_ + 1 y_2,57_ + 1 y_2,58_ + 1 y_2,59_ + 1 y_2,60_ + 1 y_2,61_ + 1 y_2,62_ + 1 y_2,63_ + 1 y_2,64_ + 1 y_2,65_ + 1 y_2,66_ + 1 y_2,67_ + 1 y_2,68_ + 1 y_2,69_ + 1 y_2,70_ + 1 y_2,71_ + 1 y_2,72_ + 1 y_2,73_ + 1 y_2,74_ + 1 y_2,75_ + 1 y_2,76_ + 1 y_2,77_ + 1 y_2,78_ + 1 y_2,79_ = 1
c5: 1 t_2,1_ + 1 t_2,2_ + 1 t_2,3_ + 1 t_2,4_ + 1 t_2,5_ + 1 t_2,6_ + 1 t_2,7_ + 1 t_2,8_ + 1 t_2,9_ + 1 t_2,10_ + 1 t_2,11_ + 1 t_2,12_ + 1 t_2,13_ + 1 t_2,14_ + 1 t_2,15_ + 1 t_2,16_ + 1 t_2,17_ + 1 t_2,18_ + 1 t_2,19_ + 1 t_2,20_ + 1 t_2,21_ + 1 t_2,22_ + 1 t_2,23_ + 1 t_2,24_ + 1 t_2,25_ + 1 t_2,26_ + 1 t_2,27_ + 1 t_2,28_ + 1 t_2,29_ + 1 t_2,30_ + 1 t_2,31_ + 1 t_2,32_ + 1 t_2,33_ + 1 t_2,34_ + 1 t_2,35_ + 1 t_2,36_ + 1 t_2,37_ + 1 t_2,38_ + 1 t_2,39_ + 1 t_2,40_ + 1 t_2,41_ + 1 t_2,42_ + 1 t_2,43_ + 1 t_2,44_ + 1 t_2,45_ + 1 t_2,46_ + 1 t_2,47_ + 1 t_2,48_ + 1 t_2,49_ + 1 t_2,50_ + 1 t_2,51_ + 1 t_2,52_ + 1 t_2,53_ + 1 t_2,54_ + 1 t_2,55_ + 1 t_2,56_ + 1 t_2,57_ + 1 t_2,58_ + 1 t_2,59_ + 1 t_2,60_ + 1 t_2,61_ + 1 t_2,62_ + 1 t_2,63_ + 1 t_2,64_ + 1 t_2,65_ + 1 t_2,66_ + 1 t_2,67_ + 1 t_2,68_ + 1 t_2,69_ + 1 t_2,70_ + 1 t_2,71_ + 1 t_2,72_ + 1 t_2,73_ + 1 t_2,74_ + 1 t_2,75_ + 1 t_2,76_ + 1 t_2,77_ + 1 t_2,78_ + 1 t_2,79_ + 1 t_2,80_ = 1
c6: -2 t_2,1_ - 1.949367088607595 t_2,2_ - 1.8987341772151898 t_2,3_ - 1.8481012658227849 t_2,4_ - 1.7974683544303796 t_2,5_ - 1.7468354430379747 t_2,6_ - 1.6962025316455698 t_2,7_ - 1.6455696202531644 t_2,8_ - 1.5949367088607596 t_2,9_ - 1.5443037974683547 t_2,10_ - 1.4936708860759493 t_2,11_ - 1.4430379746835444 t_2,12_ - 1.3924050632911391 t_2,13_ - 1.3417721518987342 t_2,14_ - 1.291139240506329 t_2,15_ - 1.240506329113924 t_2,16_ - 1.189873417721519 t_2,17_ - 1.1392405063291138 t_2,18_ - 1.0886075949367089 t_2,19_ - 1.037974683544304 t_2,20_ - 0.9873417721518987 t_2,21_ - 0.9367088607594938 t_2,22_ - 0.8860759493670888 t_2,23_ - 0.8354430379746836 t_2,24_ - 0.7848101265822783 t_2,25_ - 0.7341772151898733 t_2,26_ - 0.6835443037974684 t_2,27_ - 0.6329113924050632 t_2,28_ - 0.5822784810126582 t_2,29_ - 0.5316455696202532 t_2,30_ - 0.481012658227848 t_2,31_ - 0.4303797468354431 t_2,32_ - 0.3797468354430381 t_2,33_ - 0.3291139240506329 t_2,34_ - 0.27848101265822767 t_2,35_ - 0.227848101265823 t_2,36_ - 0.17721518987341778 t_2,37_ - 0.12658227848101256 t_2,38_ - 0.07594936708860756 t_2,39_ - 0.025316455696202556 t_2,40_ + 0.025316455696202667 t_2,41_ + 0.07594936708860756 t_2,42_ + 0.12658227848101244 t_2,43_ + 0.17721518987341778 t_2,44_ + 0.22784810126582267 t_2,45_ + 0.278481012658228 t_2,46_ + 0.3291139240506329 t_2,47_ + 0.3797468354430378 t_2,48_ + 0.4303797468354431 t_2,49_ + 0.481012658227848 t_2,50_ + 0.5316455696202533 t_2,51_ + 0.5822784810126582 t_2,52_ + 0.6329113924050631 t_2,53_ + 0.6835443037974684 t_2,54_ + 0.7341772151898733 t_2,55_ + 0.7848101265822787 t_2,56_ + 0.8354430379746836 t_2,57_ + 0.8860759493670884 t_2,58_ + 0.9367088607594938 t_2,59_ + 0.9873417721518987 t_2,60_ + 1.037974683544304 t_2,61_ + 1.0886075949367089 t_2,62_ + 1.1392405063291138 t_2,63_ + 1.189873417721519 t_2,64_ + 1.240506329113924 t_2,65_ + 1.2911392405063293 t_2,66_ + 1.3417721518987342 t_2,67_ + 1.3924050632911391 t_2,68_ + 1.4430379746835444 t_2,69_ + 1.4936708860759493 t_2,70_ + 1.5443037974683542 t_2,71_ + 1.5949367088607596 t_2,72_ + 1.6455696202531644 t_2,73_ + 1.6962025316455698 t_2,74_ + 1.7468354430379747 t_2,75_ + 1.7974683544303796 t_2,76_ + 1.8481012658227849 t_2,77_ + 1.8987341772151898 t_2,78_ + 1.949367088607595 t_2,79_ + 2 t_2,80_ - 1 x_2_ = 0
Bounds
x_1_ <= 2
x_2_ <= 2
t_1,1_ >= 0
t_2,1_ >= 0
t_1,2_ >= 0
t_2,2_ >= 0
t_1,3_ >= 0
t_2,3_ >= 0
t_1,4_ >= 0
t_2,4_ >= 0
t_1,5_ >= 0
t_2,5_ >= 0
t_1,6_ >= 0
t_2,6_ >= 0
t_1,7_ >= 0
t_2,7_ >= 0
t_1,8_ >= 0
t_2,8_ >= 0
t_1,9_ >= 0
t_2,9_ >= 0
t_1,10_ >= 0
t_2,10_ >= 0
t_1,11_ >= 0
t_2,11_ >= 0
t_1,12_ >= 0
t_2,12_ >= 0
t_1,13_ >= 0
t_2,13_ >= 0
t_1,14_ >= 0
t_2,14_ >= 0
t_1,15_ >= 0
t_2,15_ >= 0
t_1,16_ >= 0
t_2,16_ >= 0
t_1,17_ >= 0
t_2,17_ >= 0
t_1,18_ >= 0
t_2,18_ >= 0
t_1,19_ >= 0
t_2,19_ >= 0
t_1,20_ >= 0
t_2,20_ >= 0
t_1,21_ >= 0
t_2,21_ >= 0
t_1,22_ >= 0
t_2,22_ >= 0
t_1,23_ >= 0
t_2,23_ >= 0
t_1,24_ >= 0
t_2,24_ >= 0
t_1,25_ >= 0
t_2,25_ >= 0
t_1,26_ >= 0
t_2,26_ >= 0
t_1,27_ >= 0
t_2,27_ >= 0
t_1,28_ >= 0
t_2,28_ >= 0
t_1,29_ >= 0
t_2,29_ >= 0
t_1,30_ >= 0
t_2,30_ >= 0
t_1,31_ >= 0
t_2,31_ >= 0
t_1,32_ >= 0
t_2,32_ >= 0
t_1,33_ >= 0
t_2,33_ >= 0
t_1,34_ >= 0
t_2,34_ >= 0
t_1,35_ >= 0
t_2,35_ >= 0
t_1,36_ >= 0
t_2,36_ >= 0
t_1,37_ >= 0
t_2,37_ >= 0
t_1,38_ >= 0
t_2,38_ >= 0
t_1,39_ >= 0
t_2,39_ >= 0
t_1,40_ >= 0
t_2,40_ >= 0
t_1,41_ >= 0
t_2,41_ >= 0
t_1,42_ >= 0
t_2,42_ >= 0
t_1,43_ >= 0
t_2,43_ >= 0
t_1,44_ >= 0
t_2,44_ >= 0
t_1,45_ >= 0
t_2,45_ >= 0
t_1,46_ >= 0
t_2,46_ >= 0
t_1,47_ >= 0
t_2,47_ >= 0
t_1,48_ >= 0
t_2,48_ >= 0
t_1,49_ >= 0
t_2,49_ >= 0
t_1,50_ >= 0
t_2,50_ >= 0
t_1,51_ >= 0
t_2,51_ >= 0
t_1,52_ >= 0
t_2,52_ >= 0
t_1,53_ >= 0
t_2,53_ >= 0
t_1,54_ >= 0
t_2,54_ >= 0
t_1,55_ >= 0
t_2,55_ >= 0
t_1,56_ >= 0
t_2,56_ >= 0
t_1,57_ >= 0
t_2,57_ >= 0
t_1,58_ >= 0
t_2,58_ >= 0
t_1,59_ >= 0
t_2,59_ >= 0
t_1,60_ >= 0
t_2,60_ >= 0
t_1,61_ >= 0
t_2,61_ >= 0
t_1,62_ >= 0
t_2,62_ >= 0
t_1,63_ >= 0
t_2,63_ >= 0
t_1,64_ >= 0
t_2,64_ >= 0
t_1,65_ >= 0
t_2,65_ >= 0
t_1,66_ >= 0
t_2,66_ >= 0
t_1,67_ >= 0
t_2,67_ >= 0
t_1,68_ >= 0
t_2,68_ >= 0
t_1,69_ >= 0
t_2,69_ >= 0
t_1,70_ >= 0
t_2,70_ >= 0
t_1,71_ >= 0
t_2,71_ >= 0
t_1,72_ >= 0
t_2,72_ >= 0
t_1,73_ >= 0
t_2,73_ >= 0
t_1,74_ >= 0
t_2,74_ >= 0
t_1,75_ >= 0
t_2,75_ >= 0
t_1,76_ >= 0
t_2,76_ >= 0
t_1,77_ >= 0
t_2,77_ >= 0
t_1,78_ >= 0
t_2,78_ >= 0
t_1,79_ >= 0
t_2,79_ >= 0
t_1,80_ >= 0
t_2,80_ >= 0
x_1_ >= -2
x_2_ >= -2
Binary
y_1,1_
y_2,1_
y_1,2_
y_2,2_
y_1,3_
y_2,3_
y_1,4_
y_2,4_
y_1,5_
y_2,5_
y_1,6_
y_2,6_
y_1,7_
y_2,7_
y_1,8_
y_2,8_
y_1,9_
y_2,9_
y_1,10_
y_2,10_
y_1,11_
y_2,11_
y_1,12_
y_2,12_
y_1,13_
y_2,13_
y_1,14_
y_2,14_
y_1,15_
y_2,15_
y_1,16_
y_2,16_
y_1,17_
y_2,17_
y_1,18_
y_2,18_
y_1,19_
y_2,19_
y_1,20_
y_2,20_
y_1,21_
y_2,21_
y_1,22_
y_2,22_
y_1,23_
y_2,23_
y_1,24_
y_2,24_
y_1,25_
y_2,25_
y_1,26_
y_2,26_
y_1,27_
y_2,27_
y_1,28_
y_2,28_
y_1,29_
y_2,29_
y_1,30_
y_2,30_
y_1,31_
y_2,31_
y_1,32_
y_2,32_
y_1,33_
y_2,33_
y_1,34_
y_2,34_
y_1,35_
y_2,35_
y_1,36_
y_2,36_
y_1,37_
y_2,37_
y_1,38_
y_2,38_
y_1,39_
y_2,39_
y_1,40_
y_2,40_
y_1,41_
y_2,41_
y_1,42_
y_2,42_
y_1,43_
y_2,43_
y_1,44_
y_2,44_
y_1,45_
y_2,45_
y_1,46_
y_2,46_
y_1,47_
y_2,47_
y_1,48_
y_2,48_
y_1,49_
y_2,49_
y_1,50_
y_2,50_
y_1,51_
y_2,51_
y_1,52_
y_2,52_
y_1,53_
y_2,53_
y_1,54_
y_2,54_
y_1,55_
y_2,55_
y_1,56_
y_2,56_
y_1,57_
y_2,57_
y_1,58_
y_2,58_
y_1,59_
y_2,59_
y_1,60_
y_2,60_
y_1,61_
y_2,61_
y_1,62_
y_2,62_
y_1,63_
y_2,63_
y_1,64_
y_2,64_
y_1,65_
y_2,65_
y_1,66_
y_2,66_
y_1,67_
y_2,67_
y_1,68_
y_2,68_
y_1,69_
y_2,69_
y_1,70_
y_2,70_
y_1,71_
y_2,71_
y_1,72_
y_2,72_
y_1,73_
y_2,73_
y_1,74_
y_2,74_
y_1,75_
y_2,75_
y_1,76_
y_2,76_
y_1,77_
y_2,77_
y_1,78_
y_2,78_
y_1,79_
y_2,79_
End
