res_glpk/log/2_79.log
GLPSOL--GLPK LP/MIP Solver 5.0
Parameter(s) specified in the command line:
 --lp ../modeles/2_79.lp --log 2_79.log
Reading problem data from '../modeles/2_79.lp'...
167 rows, 320 columns, 1116 non-zeros
158 integer variables, all of which are binary
495 lines were read
GLPK Integer Optimizer 5.0
167 rows, 320 columns, 1116 non-zeros
158 integer variables, all of which are binary
Preprocessing...
156 constraint coefficient(s) were reduced
167 rows, 318 columns, 1114 non-zeros
158 integer variables, all of which are binary
Scaling...
 A: min|aij| =  6.409e-04  max|aij| =  4.000e+00  ratio =  6.241e+03
GM: min|aij| =  1.125e-01  max|aij| =  8.888e+00  ratio =  7.900e+01
EQ: min|aij| =  1.266e-02  max|aij| =  1.000e+00  ratio =  7.900e+01
2N: min|aij| =  1.025e-02  max|aij| =  1.677e+00  ratio =  1.636e+02
Constructing initial basis...
Size of triangular part is 167
Solving LP relaxation...
GLPK Simplex Optimizer 5.0
167 rows, 318 columns, 1114 non-zeros
      0: obj =   4.000000000e+00 inf =   9.500e+00 (5)
     25: obj =   4.994391026e-01 inf =   0.000e+00 (0)
*    88: obj =  -1.413313743e+00 inf =   6.603e-16 (0)
OPTIMAL LP SOLUTION FOUND
Integer optimization begins...
Long-step dual simplex will be used
+    88: mip =     not found yet >=              -inf        (1; 0)
+   133: >>>>>  -1.413313743e+00 >=  -1.413313743e+00   0.0% (45; 0)
+   133: mip =  -1.413313743e+00 >=     tree is empty   0.0% (0; 89)
INTEGER OPTIMAL SOLUTION FOUND
Time used:   0.0 secs
Memory used: 0.5 Mb (503244 bytes)
